20	5
0	5	2	1	3	5	4
1	3	10	13	20
2	2	20	16
3	4	20	12	10	13
4	3	17	10	13
5	4	13	20	15	10
6	1	9
7	2	14	17
8	1	19
9	1	11
10	2	14	6
11	1	8
12	1	7
13	2	14	6
14	1	8
15	1	12
16	3	13	10	15
17	1	6
18	1	21
19	1	21
20	1	21
21	0
0	0	0	0	0	0	0
1	8	1	4	3	5	2
2	7	2	2	3	2	3
3	4	5	2	1	4	2
4	2	3	4	4	4	3
5	6	2	1	2	3	3
6	2	4	1	1	3	4
7	8	2	1	1	5	4
8	2	3	4	3	3	2
9	5	2	2	2	2	1
10	6	5	3	3	2	5
11	9	4	3	2	2	2
12	2	1	4	3	4	3
13	7	1	5	5	1	4
14	10	4	1	3	3	3
15	10	4	1	5	5	1
16	4	3	5	1	2	1
17	1	3	3	5	4	5
18	6	3	5	4	2	2
19	5	5	4	5	3	4
20	5	3	5	4	2	2
21	0	0	0	0	0	0
5	5	5	5	5
